10J3M/DAT/10J3MNTR-16.dat
10 3
22.0713 1.0815
17.1814 47.2191
20.3674 38.312
25.9364 20.4587
21.0833 28.7919
22.4733 30.3804
27.2486 19.9837
21.3671 24.2608
24.8017 15.4579
25.9296 21.9211
61.9668