10J3M/SOL/10J3MNTR-16.sol
solution status: optimal solution found
objective value:                     67.8128635602422
x#1#1                               0.517451085161626 	(obj:0)
x#1#2                               0.482548914838374 	(obj:0)
x#3#2                               0.180903625408886 	(obj:0)
x#3#3                               0.434162150327176 	(obj:0)
x#4#3                                               1 	(obj:0)
x#5#2                                               1 	(obj:0)
x#6#1                               0.662139285462434 	(obj:0)
x#6#2                               0.337860714537566 	(obj:0)
x#7#3                                               1 	(obj:0)
x#8#1                                               1 	(obj:0)
x#9#2                                               1 	(obj:0)
x#10#1                              0.776891684419795 	(obj:0)
x#10#3                              0.223108315580205 	(obj:0)
z                                    67.8128635602422 	(obj:1)
